N = 5;
Q = [[[[-67.00484674  32.50242337  32.50242337  32.50242337  32.50242337]
   [ 32.50242337   5.81755083   5.7371467    8.8899267    7.85433333]
   [ 32.50242337   0.           0.           0.           0.        ]
   [ 32.50242337   0.           0.           0.           0.        ]
   [ 32.50242337   0.           0.           0.           0.        ]]

  [[ 32.50242337 -65.00484674  32.50242337  32.50242337  32.50242337]
   [  5.81755083  32.50242337   1.93873927   7.11460521   4.39121128]
   [  0.          32.50242337   0.           0.           0.        ]
   [  0.          32.50242337   0.           0.           0.        ]
   [  0.          32.50242337   0.           0.           0.        ]]

  [[ 32.50242337  32.50242337 -65.00484674  32.50242337  32.50242337]
   [  5.7371467    1.93873927  32.50242337   9.61638      9.46928509]
   [  0.           0.          32.50242337   0.           0.        ]
   [  0.           0.          32.50242337   0.           0.        ]
   [  0.           0.          32.50242337   0.           0.        ]]

  [[ 32.50242337  32.50242337  32.50242337 -65.00484674  32.50242337]
   [  8.8899267    7.11460521   9.61638     32.50242337   5.88151146]
   [  0.           0.           0.          32.50242337   0.        ]
   [  0.           0.           0.          32.50242337   0.        ]
   [  0.           0.           0.          32.50242337   0.        ]]

  [[ 32.50242337  32.50242337  32.50242337  32.50242337 -65.00484674]
   [  7.85433333   4.39121128   9.46928509   5.88151146  32.50242337]
   [  0.           0.           0.           0.          32.50242337]
   [  0.           0.           0.           0.          32.50242337]
   [  0.           0.           0.           0.          32.50242337]]]


 [[[ 32.50242337   0.           0.           0.           0.        ]
   [-65.00484674  32.50242337  32.50242337  32.50242337  32.50242337]
   [ 32.50242337   5.81755083   5.7371467    8.8899267    7.85433333]
   [ 32.50242337   0.           0.           0.           0.        ]
   [ 32.50242337   0.           0.           0.           0.        ]]

  [[  0.          32.50242337   0.           0.           0.        ]
   [ 32.50242337 -65.00484674  32.50242337  32.50242337  32.50242337]
   [  5.81755083  32.50242337   1.93873927   7.11460521   4.39121128]
   [  0.          32.50242337   0.           0.           0.        ]
   [  0.          32.50242337   0.           0.           0.        ]]

  [[  0.           0.          32.50242337   0.           0.        ]
   [ 32.50242337  32.50242337 -65.00484674  32.50242337  32.50242337]
   [  5.7371467    1.93873927  32.50242337   9.61638      9.46928509]
   [  0.           0.          32.50242337   0.           0.        ]
   [  0.           0.          32.50242337   0.           0.        ]]

  [[  0.           0.           0.          32.50242337   0.        ]
   [ 32.50242337  32.50242337  32.50242337 -65.00484674  32.50242337]
   [  8.8899267    7.11460521   9.61638     32.50242337   5.88151146]
   [  0.           0.           0.          32.50242337   0.        ]
   [  0.           0.           0.          32.50242337   0.        ]]

  [[  0.           0.           0.           0.          32.50242337]
   [ 32.50242337  32.50242337  32.50242337  32.50242337 -65.00484674]
   [  7.85433333   4.39121128   9.46928509   5.88151146  32.50242337]
   [  0.           0.           0.           0.          32.50242337]
   [  0.           0.           0.           0.          32.50242337]]]


 [[[ 32.50242337   0.           0.           0.           0.        ]
   [ 32.50242337   0.           0.           0.           0.        ]
   [-65.00484674  32.50242337  32.50242337  32.50242337  32.50242337]
   [ 32.50242337   5.81755083   5.7371467    8.8899267    7.85433333]
   [ 32.50242337   0.           0.           0.           0.        ]]

  [[  0.          32.50242337   0.           0.           0.        ]
   [  0.          32.50242337   0.           0.           0.        ]
   [ 32.50242337 -65.00484674  32.50242337  32.50242337  32.50242337]
   [  5.81755083  32.50242337   1.93873927   7.11460521   4.39121128]
   [  0.          32.50242337   0.           0.           0.        ]]

  [[  0.           0.          32.50242337   0.           0.        ]
   [  0.           0.          32.50242337   0.           0.        ]
   [ 32.50242337  32.50242337 -65.00484674  32.50242337  32.50242337]
   [  5.7371467    1.93873927  32.50242337   9.61638      9.46928509]
   [  0.           0.          32.50242337   0.           0.        ]]

  [[  0.           0.           0.          32.50242337   0.        ]
   [  0.           0.           0.          32.50242337   0.        ]
   [ 32.50242337  32.50242337  32.50242337 -65.00484674  32.50242337]
   [  8.8899267    7.11460521   9.61638     32.50242337   5.88151146]
   [  0.           0.           0.          32.50242337   0.        ]]

  [[  0.           0.           0.           0.          32.50242337]
   [  0.           0.           0.           0.          32.50242337]
   [ 32.50242337  32.50242337  32.50242337  32.50242337 -65.00484674]
   [  7.85433333   4.39121128   9.46928509   5.88151146  32.50242337]
   [  0.           0.           0.           0.          32.50242337]]]


 [[[ 32.50242337   0.           0.           0.           0.        ]
   [ 32.50242337   0.           0.           0.           0.        ]
   [ 32.50242337   0.           0.           0.           0.        ]
   [-65.00484674  32.50242337  32.50242337  32.50242337  32.50242337]
   [ 32.50242337   5.81755083   5.7371467    8.8899267    7.85433333]]

  [[  0.          32.50242337   0.           0.           0.        ]
   [  0.          32.50242337   0.           0.           0.        ]
   [  0.          32.50242337   0.           0.           0.        ]
   [ 32.50242337 -65.00484674  32.50242337  32.50242337  32.50242337]
   [  5.81755083  32.50242337   1.93873927   7.11460521   4.39121128]]

  [[  0.           0.          32.50242337   0.           0.        ]
   [  0.           0.          32.50242337   0.           0.        ]
   [  0.           0.          32.50242337   0.           0.        ]
   [ 32.50242337  32.50242337 -65.00484674  32.50242337  32.50242337]
   [  5.7371467    1.93873927  32.50242337   9.61638      9.46928509]]

  [[  0.           0.           0.          32.50242337   0.        ]
   [  0.           0.           0.          32.50242337   0.        ]
   [  0.           0.           0.          32.50242337   0.        ]
   [ 32.50242337  32.50242337  32.50242337 -65.00484674  32.50242337]
   [  8.8899267    7.11460521   9.61638     32.50242337   5.88151146]]

  [[  0.           0.           0.           0.          32.50242337]
   [  0.           0.           0.           0.          32.50242337]
   [  0.           0.           0.           0.          32.50242337]
   [ 32.50242337  32.50242337  32.50242337  32.50242337 -65.00484674]
   [  7.85433333   4.39121128   9.46928509   5.88151146  32.50242337]]]


 [[[ 32.50242337   5.81755083   5.7371467    8.8899267    7.85433333]
   [ 32.50242337   0.           0.           0.           0.        ]
   [ 32.50242337   0.           0.           0.           0.        ]
   [ 32.50242337   0.           0.           0.           0.        ]
   [-65.00484674  32.50242337  32.50242337  32.50242337  32.50242337]]

  [[  5.81755083  32.50242337   1.93873927   7.11460521   4.39121128]
   [  0.          32.50242337   0.           0.           0.        ]
   [  0.          32.50242337   0.           0.           0.        ]
   [  0.          32.50242337   0.           0.           0.        ]
   [ 32.50242337 -65.00484674  32.50242337  32.50242337  32.50242337]]

  [[  5.7371467    1.93873927  32.50242337   9.61638      9.46928509]
   [  0.           0.          32.50242337   0.           0.        ]
   [  0.           0.          32.50242337   0.           0.        ]
   [  0.           0.          32.50242337   0.           0.        ]
   [ 32.50242337  32.50242337 -65.00484674  32.50242337  32.50242337]]

  [[  8.8899267    7.11460521   9.61638     32.50242337   5.88151146]
   [  0.           0.           0.          32.50242337   0.        ]
   [  0.           0.           0.          32.50242337   0.        ]
   [  0.           0.           0.          32.50242337   0.        ]
   [ 32.50242337  32.50242337  32.50242337 -65.00484674  32.50242337]]

  [[  7.85433333   4.39121128   9.46928509   5.88151146  32.50242337]
   [  0.           0.           0.           0.          32.50242337]
   [  0.           0.           0.           0.          32.50242337]
   [  0.           0.           0.           0.          32.50242337]
   [ 32.50242337  32.50242337  32.50242337  32.50242337 -65.00484674]]]];
C = 327.0242336856553;
// The indices of the 4-tensor Q are (time,node, time,node). It is to be contracted with boolean variables x with indices (time,node). To unfold it and write everything in standard matrix formulation, use np.reshape(Q,(N**2,N**2) and np.reshape(x,N**2).